
(set-logic ALL) 

(declare-datatype MyList ((Nil) (Cons (head Real) (tail MyList)) )) 
(declare-fun l0 () MyList) 
(declare-fun l1 () MyList) 
(declare-fun l2 () MyList) 
(declare-fun l3 () MyList) 
(declare-fun i0 () Real) 
(declare-fun i1 () Real) 
(assert (not (= l0 l3)) )
(assert (and (is-Cons l2) (is-Nil Nil)) )
(assert (= l1 Nil) )
(assert (is-Cons Nil) )
(assert (and (= l2 l2) (= l1 l3) (= l0 Nil) (is-Nil l0)) )
(assert (not (= l1 Nil)) )
(assert (= l0 l2) )
(assert (and (= l3 Nil) (is-Cons l2)) )
(check-sat)
